param set_len = 24;
param target_sum = 3273598;
param values := [1] 480643 [2] 522810 [3] 272293 [4] 288638 [5] 282648 [6] 350593 [7] 503510 [8] 5217 [9] 246535 [10] 97349 [11] 262643 [12] 450450 [13] 318454 [14] 341363 [15] 502290 [16] 269113 [17] 449105 [18] 102195 [19] 139386 [20] 372486 [21] 94611 [22] 142889 [23] 219293 [24] 268568 ;
